87767650212096870445011,11,1,2,02,1,1,2,013,4,1,2,09,6,1,2,04,10,1,2,013,6,1,2,011,6,1,2,09,3,1,2,09,8,1,2,012,13,1,2,012,10,1,2,01,10,1,2,08,8,1,2,014,13,1,2,010,8,1,2,07,11,1,2,010,12,1,2,04,15,1,2,07,13,1,2,010,1,1,2,06,13,1,2,015,7,1,2,02,7,1,2,03,8,1,2,011,7,1,2,08,9,1,2,02,1,1,2,014,2,1,2,014,1,1,2,015,4,1,2,015,5,1,2,06,11,1,2,012,11,1,2,012,6,1,2,014,1,1,2,01,4,1,2,07,14,1,2,04,11,1,2,013,8,1,2,015,7,1,2,014,13,1,2,02,11,1,2,02,8,1,2,05,7,1,2,014,7,1,2,02,7,1,2,04,12,1,2,07,10,1,2,06,10,1,2,09,5,1,2,0